Route #1: 53 14 59 11 66 65
Route #2: 38 10 31 25 55 18 24 49 56 23
Route #3: 43 41 42 64 22 61 21 28 74
Route #4: 5 37 20 70 60 71 69 36 47 48 30
Route #5: 4 45 29 15 57 13 54 19 35 52 27
Route #6: 67 34 46 8 7 26 40 17
Route #7: 12 58 72 39 9 50 32 44 3 51
Route #8: 6 16 63 33 1 73 62 2 68 75
Cost 799